%NProcShared=2
#n B3LYP/6-31G(d) Opt

 riboflavin_chemspider

0 1
O          1.90290        0.64740       -0.63020
O         -0.85150        2.90120       -1.54430
O          0.07670        1.03810       -3.55750
O          1.36300        2.96550       -5.24230
O          3.82620       -2.56780        2.41980
O          4.07190        1.64590        3.60140
N          0.27340        0.25150        1.61710
N          1.17030       -2.25160        1.73870
N          2.21370        0.92940        2.69500
N          3.95070       -0.47600        3.00140
C          0.57380        1.17710       -0.59970
C          0.13510        1.45630        0.87050
C          0.48190        2.39070       -1.55680
C          0.91560        2.05830       -3.01320
C         -0.63700       -0.75980        1.44220
C          1.45770        0.00170        2.18880
C         -0.11610       -2.08060        1.40830
C         -2.02690       -0.60850        1.22770
C          1.95270       -1.30240        2.13560
C          0.91310        3.29700       -3.93470
C         -2.88680       -1.69260        0.92420
C         -0.93650       -3.16670        1.05640
C         -2.32360       -2.99800        0.81660
C          3.26170       -1.48790        2.51520
C         -4.32050       -1.32790        0.74480
C         -3.06910       -4.24190        0.48440
C          3.42990        0.72170        3.12960
H         -0.07000        0.39120       -1.00420
H         -0.87540        1.86510        0.89960
H          0.72720        2.29580        1.24780
H          1.13300        3.17690       -1.16440
H          1.93520        1.66190       -3.00250
H         -2.43100        0.32740        1.29780
H          1.57720        4.06510       -3.53230
H         -0.09350        3.71170       -4.01210
H         -0.50410       -4.09300        0.98510
H          2.47270        1.32860       -0.21530
H         -1.41550        2.15550       -1.84020
H          0.48130        0.78860       -4.41450
H         -4.42690       -0.63860       -0.09590
H         -4.69040       -0.82940        1.64370
H         -5.00440       -2.14990        0.55860
H         -2.67620       -4.68080       -0.43500
H         -2.95250       -4.96700        1.29240
H         -4.13860       -4.12840        0.33470
H          4.84050       -0.60770        3.25840
H          1.30910        3.80690       -5.74130

